NAME : tsp35_10.201.tour
COMMENT : Length = 201
COMMENT : Found by LKH [Keld Helsgaun]
TYPE : TOUR
DIMENSION : 35
TOUR_SECTION
1
13
16
25
7
29
19
24
12
4
34
8
21
10
18
33
11
23
32
17
9
27
2
20
6
3
22
35
14
26
30
31
5
28
15
-1
EOF
